NB_PERIODS = 20;
NB_VENUES = 3;
GAME_DURATION = 60;
NB_GAMES = 6;
NB_TEAMS = 6;
NB_DIVISIONS = 2;
NB_TEAMS_PER_DIVISION = [3, 3];
VENUE_AVAILABILITIES = [|false,false,false, true,false,false,false,false, true, true,false,false,
   true,false,false, true, true, true, true, true
 | true, true, true, true,false,false,false,false, true, true,false,false,
   true, true,false, true,false, true,false,false
 | true, true, true,false,false,false,false, true,false, true,false, true,
  false, true,false, true,false,false,false,false|];
GAMES_TO_SCHEDULE = [|div_1_team_1,div_1_team_2
 |div_1_team_1,div_1_team_3
 |div_1_team_2,div_1_team_3
 |div_2_team_1,div_2_team_2
 |div_2_team_1,div_2_team_3
 |div_2_team_2,div_2_team_3|];
TEAM_NAMES = {div_1_team_1, div_1_team_2, div_1_team_3, div_2_team_1, div_2_team_2, div_2_team_3};
TEAMS_TIME_PREFERENCES = array2d(TEAM_NAMES, periods, [0,4,0,1,0,5,3,0,0,0,0,0,0,0,0,5,0,0,5,0,
0,0,0,0,0,3,0,2,0,2,0,0,0,3,0,0,0,0,0,0,
0,0,0,0,0,0,0,0,0,0,3,0,5,0,0,0,0,0,0,0,
3,0,0,0,0,0,0,2,0,0,0,0,0,0,0,0,0,0,0,1,
0,0,0,4,0,3,0,2,5,0,0,0,0,0,0,0,0,0,0,0,
0,2,0,0,5,0,0,3,0,0,0,0,0,0,0,3,0,3,0,0]);
COACH_NAMES = {Coach_1, Coach_2, Coach_3, Coach_4, Coach_5};
COACHES_BY_TEAM = array1d(TEAM_NAMES, [Coach_1, Coach_2, Coach_3, Coach_4, Coach_5, Coach_1]);
